molecule { 
0 1
 N   -0.979699   -1.513250    0.246896
 C   -2.296918   -1.182257    0.420547
 C   -2.612721    0.333938    0.430069
 F   -3.695076    0.538848   -0.344437
 F   -2.939733    0.653461    1.715552
 C   -1.482769    1.310162   -0.001473
 C   -0.135840    0.743829   -0.125869
 C    0.957442    1.577630   -0.387264
 C    2.237305    1.070479   -0.518078
 C    2.448032   -0.313936   -0.396487
 C    1.365528   -1.157848   -0.131958
 C    0.081462   -0.638679   -0.002471
 S    4.025656   -1.089385   -0.516658
 C    5.172074    0.299600   -0.668778
 O   -3.164146   -2.007178    0.592313
 O   -1.759934    2.475900   -0.176061
 H    3.060171    1.744493   -0.723380
 H    0.769807    2.642725   -0.485559
 H   -0.786453   -2.506868    0.283924
 H    1.528206   -2.227616   -0.024388
 H    5.042581    1.015822    0.146449
 H    6.174387   -0.129594   -0.606399
 H    5.066234    0.806405   -1.631309
}
memory 16GB
set_num_threads(8)
psi4_io.set_default_path("/scratch/Psi4-ligand")
set freeze_core True
E, wfn = energy('wb97x-d/6-311++g**',return_wfn=True)
oeprop(wfn,"WIBERG_LOWDIN_INDICES")
clean()
