molecule { 
0 1
 N   -0.705894   -1.621413   -0.262414
 C   -1.966032   -1.664636    0.272847
 C   -2.414885   -0.402294    1.046734
 F   -3.597741   -0.003195    0.525818
 F   -2.620165   -0.778434    2.334291
 C   -1.456087    0.820075    1.061917
 C   -0.147639    0.652825    0.414172
 C    0.777749    1.704917    0.425210
 C    2.016296    1.571084   -0.172693
 C    2.346715    0.368482   -0.817664
 C    1.433570   -0.682376   -0.844060
 C    0.190782   -0.550724   -0.219907
 S    3.939350    0.117328   -1.572106
 C    4.013335    1.525187   -2.719354
 O   -2.690214   -2.627080    0.173076
 O   -1.827000    1.833431    1.608462
 H    2.734618    2.382558   -0.124791
 H    0.498329    2.623411    0.931407
 H   -0.425290   -2.466313   -0.745784
 H    1.689218   -1.602748   -1.361159
 H    3.251044    1.434721   -3.495825
 H    3.913238    2.480198   -2.200267
 H    5.001085    1.485701   -3.185316
}
memory 16GB
set_num_threads(8)
psi4_io.set_default_path("/scratch/Psi4-ligand")
set freeze_core True
E, wfn = energy('wb97x-d/6-311++g**',return_wfn=True)
oeprop(wfn,"WIBERG_LOWDIN_INDICES")
clean()
