molecule { 
0 1
 N   -0.525572   -1.563758   -0.377253
 C   -1.758844   -1.792180    0.175844
 C   -2.333703   -0.641680    1.036146
 F   -3.452221   -0.195557    0.401409
 F   -2.698928   -1.164370    2.230622
 C   -1.427477    0.595830    1.298887
 C   -0.139672    0.643280    0.586100
 C    0.692783    1.759004    0.724463
 C    1.906326    1.830679    0.059790
 C    2.310800    0.761580   -0.750593
 C    1.500582   -0.364676   -0.881644
 C    0.270203   -0.424819   -0.226839
 S    3.893235    0.832172   -1.569376
 C    3.358588    0.845221   -3.303902
 O   -2.377778   -2.814664    0.003879
 O   -1.829792    1.454263    2.049405
 H    2.540621    2.705351    0.154266
 H    0.354909    2.572277    1.358107
 H   -0.175456   -2.323841   -0.948498
 H    1.833828   -1.203918   -1.485085
 H    2.868684   -0.090085   -3.585286
 H    2.693836    1.687896   -3.499569
 H    4.262614    0.958865   -3.907317
}
memory 16GB
set_num_threads(8)
psi4_io.set_default_path("/scratch/Psi4-ligand")
set freeze_core True
E, wfn = energy('wb97x-d/6-311++g**',return_wfn=True)
oeprop(wfn,"WIBERG_LOWDIN_INDICES")
clean()
