molecule { 
0 1
 N   -0.668639   -1.353214   -0.158450
 C   -2.032191   -1.221593   -0.175178
 C   -2.584676    0.221489    0.069767
 F   -3.307115    0.581085   -1.045617
 F   -3.448129    0.158309    1.140728
 C   -1.539211    1.355409    0.354309
 C   -0.104295    0.989858    0.322976
 C    0.882487    1.972986    0.559585
 C    2.244266    1.647408    0.534013
 C    2.656893    0.317537    0.262231
 C    1.671291   -0.669103    0.037518
 C    0.302692   -0.348347    0.064015
 S    4.351929   -0.195702    0.237408
 C    4.639545   -0.701639   -1.478783
 O   -2.744651   -2.194214   -0.378349
 O   -1.911163    2.502307    0.583810
 H    2.972370    2.434303    0.729164
 H    0.556162    2.992892    0.765485
 H   -0.374649   -2.305669   -0.326428
 H    1.975254   -1.700293   -0.146524
 H    4.030629   -1.580751   -1.709367
 H    4.370720    0.120939   -2.148865
 H    5.698516   -0.946050   -1.604410
}
set optking { 
  frozen_dihedral = ("
    11 10 13 14
    9 10 13 14
    21 14 13 10
  ")
}
set {
  geom_maxiter 400
  g_convergence GAU_LOOSE
  dynamic_level 1
}
memory 16GB
set_num_threads(8)
psi4_io.set_default_path("/scratch/Psi4-ligand")
for _ in range(1):
  try:
    set opt_coordinates both
    optimize('wb97x-d/6-31+G*')
    break
  except OptimizationConvergenceError:
    break
  else:
    try:
      set opt_coordinates cartesian
      optimize('wb97x-d/6-31+G*')
      break
    except OptimizationConvergenceError:
      pass
clean()
