molecule { 
0 1
 N   -0.964681   -1.544134    0.225212
 C   -2.233253   -1.232519    0.640458
 C   -2.575062    0.273342    0.564253
 F   -3.053614    0.483348   -0.709536
 F   -3.547829    0.559081    1.433852
 C   -1.380559    1.247499    0.730217
 C   -0.098206    0.736558    0.231930
 C    0.980478    1.601435    0.028119
 C    2.201962    1.136268   -0.428083
 C    2.367370   -0.234617   -0.681993
 C    1.302032   -1.115369   -0.460888
 C    0.074622   -0.637649   -0.015348
 S    3.871911   -0.965568   -1.235944
 C    5.044662    0.410935   -1.229094
 O   -3.044580   -2.062438    0.977246
 O   -1.561972    2.354060    1.185225
 H    3.011462    1.837605   -0.591381
 H    0.833585    2.657977    0.232015
 H   -0.760755   -2.535356    0.185827
 H    1.435394   -2.180028   -0.636998
 H    6.014976   -0.032612   -1.464157
 H    4.803524    1.156861   -1.990064
 H    5.107030    0.875931   -0.242134
}
memory 16GB
set_num_threads(8)
psi4_io.set_default_path("/scratch/Psi4-ligand")
set freeze_core True
E, wfn = energy('wb97x-d/6-311++g**',return_wfn=True)
oeprop(wfn,"WIBERG_LOWDIN_INDICES")
clean()
