molecule { 
0 1
 N   -1.071604   -1.481032    0.180169
 C   -2.383369   -1.148511    0.393861
 C   -2.707581    0.381743    0.416772
 F   -3.699755    0.609542   -0.510903
 F   -3.207587    0.677759    1.664843
 C   -1.528248    1.372816    0.121837
 C   -0.180420    0.793324   -0.081939
 C    0.925435    1.636078   -0.326241
 C    2.211100    1.109422   -0.510144
 C    2.427198   -0.296285   -0.468606
 C    1.314690   -1.135453   -0.231022
 C    0.023663   -0.612639   -0.041863
 S    3.979905   -1.153948   -0.639227
 C    5.329973    0.058602   -0.752517
 O   -3.222831   -2.021133    0.562485
 O   -1.726761    2.583236    0.079862
 H    3.023952    1.810914   -0.683450
 H    0.754251    2.712720   -0.360616
 H   -0.925846   -2.481343    0.184103
 H    1.460274   -2.215995   -0.183429
 H    4.957100    1.081704   -0.803263
 H    5.968493   -0.048397    0.130043
 H    5.915997   -0.155182   -1.651718
}
set optking { 
  frozen_dihedral = ("
    11 10 13 14
    9 10 13 14
    21 14 13 10
  ")
}
set {
  geom_maxiter 400
  g_convergence GAU_LOOSE
  dynamic_level 1
}
memory 16GB
set_num_threads(8)
psi4_io.set_default_path("/scratch/Psi4-ligand")
for _ in range(1):
  try:
    set opt_coordinates both
    optimize('wb97x-d/6-31+G*')
    break
  except OptimizationConvergenceError:
    break
  else:
    try:
      set opt_coordinates cartesian
      optimize('wb97x-d/6-31+G*')
      break
    except OptimizationConvergenceError:
      pass
clean()
