molecule { 
0 1
 N   -0.778464   -1.563868    0.194377
 C   -2.076570   -1.379090    0.592150
 C   -2.439654    0.093494    0.881232
 F   -3.758400    0.265909    0.791369
 F   -2.058220    0.322337    2.184616
 C   -1.680199    1.146189    0.038073
 C   -0.294162    0.776695   -0.298048
 C    0.607506    1.746068   -0.744572
 C    1.910092    1.403808   -1.073459
 C    2.320516    0.069148   -0.971381
 C    1.428119   -0.908128   -0.531883
 C    0.119272   -0.562211   -0.197203
 S    4.005766   -0.386981   -1.355886
 C    4.716940   -0.308636    0.320502
 O   -2.854191   -2.285095    0.776251
 O   -2.205205    2.198633   -0.239956
 H    2.611071    2.159044   -1.413105
 H    0.262863    2.772609   -0.822566
 H   -0.498567   -2.531862    0.092174
 H    1.754631   -1.942696   -0.466997
 H    4.705611    0.714509    0.702848
 H    4.181635   -0.971106    1.004462
 H    5.752913   -0.646276    0.235127
}
memory 16GB
set_num_threads(8)
psi4_io.set_default_path("/scratch/Psi4-ligand")
set freeze_core True
E, wfn = energy('wb97x-d/6-311++g**',return_wfn=True)
oeprop(wfn,"WIBERG_LOWDIN_INDICES")
clean()
