molecule { 
0 1
 N   -1.153345   -1.377093   -0.310259
 C   -2.445896   -0.937256   -0.190506
 C   -2.581010    0.491565    0.382835
 F   -3.738184    1.026717   -0.013081
 F   -2.612884    0.342546    1.748093
 C   -1.397887    1.449946    0.091984
 C   -0.088483    0.795584   -0.012795
 C    1.089929    1.543682    0.046124
 C    2.333547    0.945917   -0.063300
 C    2.420729   -0.440350   -0.258616
 C    1.246603   -1.201478   -0.319192
 C    0.001857   -0.593955   -0.204889
 S    3.905231   -1.384715   -0.410243
 C    5.291549   -0.243466   -0.123223
 O   -3.406402   -1.623577   -0.443379
 O   -1.588564    2.643988    0.031436
 H    3.217567    1.567956   -0.002423
 H    1.006997    2.616563    0.190737
 H   -1.058790   -2.343170   -0.599132
 H    1.308849   -2.278161   -0.457315
 H    5.806636   -0.526771    0.796314
 H    5.980207   -0.327592   -0.965839
 H    4.967451    0.793338   -0.047439
}
memory 16GB
set_num_threads(8)
psi4_io.set_default_path("/scratch/Psi4-ligand")
set freeze_core True
E, wfn = energy('wb97x-d/6-311++g**',return_wfn=True)
oeprop(wfn,"WIBERG_LOWDIN_INDICES")
clean()
