molecule { 
0 1
 N   -0.933991   -1.543430    0.147930
 C   -2.264722   -1.260355    0.306603
 C   -2.637851    0.240860    0.353845
 F   -3.520393    0.467959   -0.649350
 F   -3.268265    0.461480    1.533054
 C   -1.490205    1.279530    0.222848
 C   -0.130599    0.756077    0.057835
 C    0.949196    1.636660   -0.072779
 C    2.242498    1.172901   -0.226175
 C    2.480947   -0.210311   -0.264566
 C    1.410967   -1.101450   -0.146666
 C    0.113488   -0.626563    0.025893
 S    4.086802   -0.933444   -0.406182
 C    5.062254    0.343867   -1.242430
 O   -3.111198   -2.118049    0.404788
 O   -1.775609    2.455761    0.261345
 H    3.056203    1.883110   -0.310529
 H    0.743297    2.702219   -0.042260
 H   -0.715228   -2.532221    0.122332
 H    1.592970   -2.171936   -0.198872
 H    4.701955    0.515641   -2.259152
 H    5.106060    1.276840   -0.677657
 H    6.075115   -0.063466   -1.298964
}
memory 16GB
set_num_threads(8)
psi4_io.set_default_path("/scratch/Psi4-ligand")
set freeze_core True
E, wfn = energy('wb97x-d/6-311++g**',return_wfn=True)
oeprop(wfn,"WIBERG_LOWDIN_INDICES")
clean()
