molecule { 
0 1
 N   -1.011167   -1.500921    0.183144
 C   -2.289787   -1.155344    0.532730
 C   -2.590862    0.363058    0.512566
 F   -3.231701    0.606542   -0.674269
 F   -3.435259    0.648097    1.513769
 C   -1.374668    1.326678    0.556073
 C   -0.085552    0.754424    0.154193
 C    1.030125    1.579935   -0.019735
 C    2.261226    1.063879   -0.380172
 C    2.400256   -0.319879   -0.578443
 C    1.300591   -1.159927   -0.377058
 C    0.063884   -0.631487   -0.022822
 S    3.900349   -1.128400   -1.031659
 C    5.146926    0.181729   -1.029555
 O   -3.147909   -1.969438    0.781907
 O   -1.553881    2.484927    0.859183
 H    3.102238    1.735413   -0.497429
 H    0.902386    2.646326    0.140187
 H   -0.842585   -2.498107    0.126325
 H    1.411680   -2.234269   -0.503732
 H    5.944168   -0.157995   -1.693731
 H    4.757963    1.105047   -1.463964
 H    5.539145    0.372691   -0.028873
}
memory 16GB
set_num_threads(8)
psi4_io.set_default_path("/scratch/Psi4-ligand")
set freeze_core True
E, wfn = energy('wb97x-d/6-311++g**',return_wfn=True)
oeprop(wfn,"WIBERG_LOWDIN_INDICES")
clean()
