molecule { 
0 1
 N   -0.921711   -1.519119    0.384900
 C   -2.189206   -1.195656    0.794760
 C   -2.576278    0.279226    0.545678
 F   -3.073142    0.322350   -0.736145
 F   -3.546883    0.640026    1.387684
 C   -1.409078    1.295873    0.576920
 C   -0.122656    0.766876    0.102481
 C    0.925026    1.633163   -0.222067
 C    2.145355    1.149241   -0.660531
 C    2.342810   -0.235312   -0.768298
 C    1.317462   -1.113329   -0.406078
 C    0.082684   -0.620326    0.006662
 S    3.865758   -0.962555   -1.303895
 C    5.109154    0.181651   -0.641066
 O   -2.967395   -2.000916    1.248322
 O   -1.609587    2.439845    0.914422
 H    2.929511    1.846086   -0.933237
 H    0.753140    2.701488   -0.133061
 H   -0.691579   -2.502973    0.454233
 H    1.490215   -2.185730   -0.441790
 H    5.051157    1.169559   -1.102224
 H    5.012626    0.269458    0.443568
 H    6.079117   -0.259900   -0.881386
}
memory 16GB
set_num_threads(8)
psi4_io.set_default_path("/scratch/Psi4-ligand")
set freeze_core True
E, wfn = energy('wb97x-d/6-311++g**',return_wfn=True)
oeprop(wfn,"WIBERG_LOWDIN_INDICES")
clean()
