molecule { 
0 1
 N   -0.424050   -1.285151    0.936733
 C   -1.758123   -1.240972    1.244472
 C   -2.547246   -0.042194    0.665394
 F   -3.539134   -0.551555   -0.105652
 F   -3.112420    0.608856    1.710791
 C   -1.767335    0.998686   -0.184042
 C   -0.336794    0.756479   -0.388931
 C    0.427845    1.654121   -1.150107
 C    1.773693    1.447412   -1.358518
 C    2.401890    0.314430   -0.803040
 C    1.657917   -0.581722   -0.035612
 C    0.293362   -0.365520    0.166493
 S    4.129995    0.161948   -1.101725
 C    4.561215   -1.433257   -0.365699
 O   -2.303143   -2.081048    1.922372
 O   -2.378038    1.943436   -0.633066
 H    2.349305    2.150567   -1.952957
 H   -0.072305    2.519724   -1.573532
 H    0.068625   -2.080844    1.324489
 H    2.121861   -1.454656    0.411892
 H    4.432347   -1.429509    0.720091
 H    3.994872   -2.251547   -0.818574
 H    5.620839   -1.580268   -0.587116
}
memory 16GB
set_num_threads(8)
psi4_io.set_default_path("/scratch/Psi4-ligand")
set freeze_core True
E, wfn = energy('wb97x-d/6-311++g**',return_wfn=True)
oeprop(wfn,"WIBERG_LOWDIN_INDICES")
clean()
