molecule { 
0 1
 N   -1.069437   -1.471691   -0.114120
 C   -2.385068   -1.099928   -0.015187
 C   -2.597026    0.376949    0.386261
 F   -3.796625    0.789466   -0.032497
 F   -2.588661    0.394874    1.761194
 C   -1.486522    1.363949   -0.053602
 C   -0.140652    0.782688   -0.113475
 C    0.988507    1.602692   -0.177094
 C    2.265607    1.072931   -0.242474
 C    2.438243   -0.319141   -0.267261
 C    1.313802   -1.151560   -0.201167
 C    0.034822   -0.611870   -0.132879
 S    3.976431   -1.185261   -0.329318
 C    5.298971    0.057591   -0.220546
 O   -3.305562   -1.870112   -0.154302
 O   -1.757869    2.523703   -0.265296
 H    3.108221    1.751212   -0.283453
 H    0.839475    2.678114   -0.165392
 H   -0.917874   -2.457444   -0.290116
 H    1.442242   -2.231218   -0.205697
 H    4.913916    1.075734   -0.245407
 H    5.845595   -0.083871    0.713703
 H    5.974372   -0.080503   -1.066505
}
memory 16GB
set_num_threads(8)
psi4_io.set_default_path("/scratch/Psi4-ligand")
set freeze_core True
E, wfn = energy('wb97x-d/6-311++g**',return_wfn=True)
oeprop(wfn,"WIBERG_LOWDIN_INDICES")
clean()
