molecule { 
0 1
 N   -1.004326   -1.506978    0.187257
 C   -2.257627   -1.177496    0.632676
 C   -2.555045    0.338859    0.664043
 F   -3.146342    0.619410   -0.544679
 F   -3.434560    0.601381    1.635577
 C   -1.332979    1.286460    0.762850
 C   -0.075272    0.746122    0.235978
 C    1.022830    1.584464    0.024364
 C    2.223175    1.096882   -0.462426
 C    2.351180   -0.272845   -0.743188
 C    1.261475   -1.124987   -0.525570
 C    0.056408   -0.624931   -0.045118
 S    3.811871   -1.071954   -1.330461
 C    5.107863    0.198344   -1.350446
 O   -3.094828   -1.999253    0.923522
 O   -1.481557    2.405762    1.198491
 H    3.034860    1.789579   -0.647295
 H    0.906239    2.641289    0.244663
 H   -0.840204   -2.500939    0.082436
 H    1.360432   -2.189098   -0.726037
 H    6.036118   -0.304312   -1.068210
 H    5.205455    0.668695   -2.330015
 H    4.927329    0.955809   -0.585434
}
memory 16GB
set_num_threads(8)
psi4_io.set_default_path("/scratch/Psi4-ligand")
set freeze_core True
E, wfn = energy('wb97x-d/6-311++g**',return_wfn=True)
oeprop(wfn,"WIBERG_LOWDIN_INDICES")
clean()
