molecule { 
0 1
 N   -0.506573   -1.640983   -0.299840
 C   -1.809139   -1.801171    0.091349
 C   -2.471431   -0.572510    0.759917
 F   -3.571034   -0.261459    0.032542
 F   -2.872132   -0.953566    1.997214
 C   -1.619660    0.718125    0.913700
 C   -0.229940    0.669935    0.431060
 C    0.593608    1.794477    0.563080
 C    1.904116    1.770167    0.118313
 C    2.408021    0.608188   -0.483323
 C    1.601848   -0.518861   -0.615497
 C    0.281932   -0.495346   -0.158446
 S    4.105440    0.543099   -1.040804
 C    3.900571    1.265281   -2.701596
 O   -2.421435   -2.831543   -0.066928
 O   -2.135685    1.689078    1.418163
 H    2.545573    2.637122    0.237696
 H    0.176763    2.681094    1.030906
 H   -0.093368   -2.459636   -0.730571
 H    2.007398   -1.417868   -1.071823
 H    3.293459    0.617918   -3.338497
 H    3.456024    2.261560   -2.643734
 H    4.902377    1.347977   -3.130816
}
memory 16GB
set_num_threads(8)
psi4_io.set_default_path("/scratch/Psi4-ligand")
set freeze_core True
E, wfn = energy('wb97x-d/6-311++g**',return_wfn=True)
oeprop(wfn,"WIBERG_LOWDIN_INDICES")
clean()
