molecule { 
0 1
 N   -1.138822   -1.421161   -0.166359
 C   -2.432846   -0.995338   -0.014454
 C   -2.565266    0.463171    0.477628
 F   -3.755006    0.955180    0.122483
 F   -2.515345    0.396296    1.853582
 C   -1.420826    1.422390    0.065810
 C   -0.105693    0.785435   -0.065567
 C    1.056790    1.558304   -0.123852
 C    2.305751    0.976798   -0.260859
 C    2.412514   -0.418945   -0.358295
 C    1.253791   -1.204723   -0.310777
 C    0.004092   -0.612969   -0.170873
 S    3.917673   -1.328113   -0.498981
 C    5.250882   -0.104856   -0.349923
 O   -3.391824   -1.712317   -0.178360
 O   -1.639840    2.606002   -0.060307
 H    3.178261    1.615888   -0.318328
 H    0.957039    2.637372   -0.055794
 H   -1.039575   -2.402141   -0.398818
 H    1.332567   -2.286988   -0.379177
 H    4.924113    0.783636    0.191833
 H    6.060493   -0.582135    0.205115
 H    5.610912    0.196295   -1.336137
}
memory 16GB
set_num_threads(8)
psi4_io.set_default_path("/scratch/Psi4-ligand")
set freeze_core True
E, wfn = energy('wb97x-d/6-311++g**',return_wfn=True)
oeprop(wfn,"WIBERG_LOWDIN_INDICES")
clean()
