molecule { 
0 1
 N   -0.964836   -1.523397    0.244584
 C   -2.253765   -1.197601    0.573937
 C   -2.591421    0.312264    0.559861
 F   -3.428437    0.520003   -0.493521
 F   -3.262025    0.594052    1.695565
 C   -1.415422    1.314357    0.407402
 C   -0.106414    0.751425    0.064641
 C    0.979028    1.597944   -0.184066
 C    2.225638    1.096636   -0.511218
 C    2.410031   -0.293170   -0.596865
 C    1.338073   -1.152317   -0.333485
 C    0.085868   -0.638639   -0.014244
 S    3.947688   -1.065868   -0.971937
 C    5.108938    0.317777   -1.056740
 O   -3.096447   -2.025908    0.829652
 O   -1.642790    2.494710    0.554668
 H    3.041617    1.782474   -0.704251
 H    0.814947    2.668974   -0.114701
 H   -0.774553   -2.518158    0.224427
 H    1.484058   -2.228826   -0.379064
 H    4.889152    0.983521   -1.895011
 H    5.133275    0.878046   -0.118741
 H    6.089745   -0.134801   -1.219491
}
memory 16GB
set_num_threads(8)
psi4_io.set_default_path("/scratch/Psi4-ligand")
set freeze_core True
E, wfn = energy('wb97x-d/6-311++g**',return_wfn=True)
oeprop(wfn,"WIBERG_LOWDIN_INDICES")
clean()
