molecule { 
0 1
 N   -0.856828   -1.548236    0.184466
 C   -2.161217   -1.306487    0.525026
 C   -2.573331    0.182985    0.603838
 F   -3.685064    0.342262   -0.147320
 F   -2.892701    0.436544    1.900036
 C   -1.529388    1.247995    0.171809
 C   -0.177201    0.768602   -0.150677
 C    0.829477    1.686264   -0.479041
 C    2.107021    1.258951   -0.788270
 C    2.401250   -0.113560   -0.769007
 C    1.415224   -1.034739   -0.429422
 C    0.119606   -0.601000   -0.135017
 S    4.044997   -0.707460   -1.126901
 C    4.955632    0.027951    0.267297
 O   -2.951555   -2.188061    0.768720
 O   -1.871436    2.407785    0.138999
 H    2.873811    1.975488   -1.063901
 H    0.572405    2.740838   -0.491166
 H   -0.604525   -2.528935    0.156859
 H    1.658406   -2.093003   -0.393707
 H    4.965165    1.118787    0.212745
 H    4.532008   -0.296233    1.220389
 H    5.983145   -0.336543    0.190219
}
memory 16GB
set_num_threads(8)
psi4_io.set_default_path("/scratch/Psi4-ligand")
set freeze_core True
E, wfn = energy('wb97x-d/6-311++g**',return_wfn=True)
oeprop(wfn,"WIBERG_LOWDIN_INDICES")
clean()
