molecule { 
0 1
 N   -1.015822   -1.490143    0.149085
 C   -2.314458   -1.139685    0.406536
 C   -2.602837    0.377905    0.494302
 F   -3.544122    0.662650   -0.438643
 F   -3.132200    0.616730    1.719028
 C   -1.414852    1.356883    0.288677
 C   -0.100214    0.765414    0.023505
 C    1.015746    1.585239   -0.173724
 C    2.267351    1.055382   -0.430819
 C    2.429037   -0.337928   -0.501347
 C    1.322567   -1.170323   -0.297662
 C    0.067491   -0.628512   -0.043694
 S    3.955501   -1.174452   -0.782862
 C    5.217360    0.126395   -0.816841
 O   -3.195997   -1.953199    0.558355
 O   -1.636024    2.545591    0.357279
 H    3.097869    1.728706   -0.603498
 H    0.873351    2.660613   -0.124267
 H   -0.852953   -2.488413    0.094485
 H    1.445805   -2.250186   -0.335714
 H    5.441315    0.442812   -1.837421
 H    4.949785    0.973029   -0.184348
 H    6.119926   -0.326782   -0.398599
}
memory 16GB
set_num_threads(8)
psi4_io.set_default_path("/scratch/Psi4-ligand")
set freeze_core True
E, wfn = energy('wb97x-d/6-311++g**',return_wfn=True)
oeprop(wfn,"WIBERG_LOWDIN_INDICES")
clean()
