molecule { 
0 1
 N   -0.583211   -1.571569   -0.174819
 C   -1.946995   -1.594860   -0.036879
 C   -2.593276   -0.193970    0.047929
 F   -2.792610    0.201942   -1.252927
 F   -3.777837   -0.277909    0.650871
 C   -1.718352    0.910338    0.691172
 C   -0.276621    0.766435    0.446578
 C    0.593832    1.838847    0.672891
 C    1.951288    1.714004    0.444236
 C    2.473602    0.484657    0.007895
 C    1.620255   -0.598540   -0.201129
 C    0.248555   -0.459867    0.007909
 S    4.228333    0.379974   -0.202104
 C    4.398282   -0.746147   -1.614215
 O   -2.599779   -2.611289   -0.050588
 O   -2.237345    1.827417    1.284563
 H    2.613921    2.561290    0.587335
 H    0.170841    2.779590    1.011812
 H   -0.155604   -2.477372   -0.324181
 H    2.013503   -1.560889   -0.514234
 H    4.047253   -1.755501   -1.388317
 H    3.870132   -0.353804   -2.486433
 H    5.467603   -0.792143   -1.833469
}
memory 16GB
set_num_threads(8)
psi4_io.set_default_path("/scratch/Psi4-ligand")
set freeze_core True
E, wfn = energy('wb97x-d/6-311++g**',return_wfn=True)
oeprop(wfn,"WIBERG_LOWDIN_INDICES")
clean()
