molecule { 
0 1
 N   -1.063727   -1.475206    0.257177
 C   -2.380318   -1.133677    0.422272
 C   -2.706661    0.394382    0.341842
 F   -3.699311    0.559303   -0.598614
 F   -3.207136    0.772792    1.567311
 C   -1.527868    1.364451   -0.018843
 C   -0.174584    0.778002   -0.154982
 C    0.931748    1.605556   -0.446250
 C    2.223057    1.073573   -0.559739
 C    2.441897   -0.323216   -0.405151
 C    1.330123   -1.149611   -0.126417
 C    0.033538   -0.620346   -0.004742
 S    4.005880   -1.167347   -0.488767
 C    5.299767    0.092571   -0.669384
 O   -3.221442   -1.995785    0.632348
 O   -1.730661    2.566822   -0.159222
 H    3.042910    1.763808   -0.748986
 H    0.756809    2.675054   -0.569073
 H   -0.915643   -2.472262    0.333188
 H    1.480350   -2.222332    0.006036
 H    5.565533    0.479689    0.319009
 H    6.182231   -0.384793   -1.107245
 H    4.971536    0.896515   -1.332732
}
set optking { 
  frozen_dihedral = ("
    11 10 13 14
    9 10 13 14
    21 14 13 10
  ")
}
set {
  geom_maxiter 400
  g_convergence GAU_LOOSE
  dynamic_level 1
}
memory 16GB
set_num_threads(8)
psi4_io.set_default_path("/scratch/Psi4-ligand")
for _ in range(1):
  try:
    set opt_coordinates both
    optimize('wb97x-d/6-31+G*')
    break
  except OptimizationConvergenceError:
    break
  else:
    try:
      set opt_coordinates cartesian
      optimize('wb97x-d/6-31+G*')
      break
    except OptimizationConvergenceError:
      pass
clean()
