molecule { 
0 1
 N   -0.953256   -1.270273   -0.886241
 C   -2.293826   -1.047754   -0.708594
 C   -2.657396    0.137338    0.219068
 F   -3.681179    0.815463   -0.330665
 F   -3.088342   -0.418566    1.388378
 C   -1.524339    1.132142    0.591264
 C   -0.151934    0.687488    0.327057
 C    0.932759    1.440491    0.788476
 C    2.237837    1.046771    0.553769
 C    2.485779   -0.125673   -0.178352
 C    1.409402   -0.896209   -0.634354
 C    0.100054   -0.491517   -0.395585
 S    4.083346   -0.773393   -0.552297
 C    5.258007    0.304774    0.307167
 O   -3.147641   -1.742006   -1.209883
 O   -1.822627    2.183156    1.112194
 H    3.047542    1.647505    0.949086
 H    0.722556    2.346793    1.349113
 H   -0.733652   -2.082714   -1.450584
 H    1.598120   -1.815199   -1.185239
 H    4.941170    1.349437    0.313274
 H    5.401873   -0.017956    1.341799
 H    6.205131    0.223115   -0.229105
}
memory 16GB
set_num_threads(8)
psi4_io.set_default_path("/scratch/Psi4-ligand")
set freeze_core True
E, wfn = energy('wb97x-d/6-311++g**',return_wfn=True)
oeprop(wfn,"WIBERG_LOWDIN_INDICES")
clean()
