molecule { 
0 1
 N   -1.004726   -1.480652    0.299578
 C   -2.319081   -1.122853    0.442739
 C   -2.619989    0.393100    0.363751
 F   -3.618380    0.567753   -0.528852
 F   -3.072990    0.767865    1.590346
 C   -1.452359    1.346616   -0.008314
 C   -0.116774    0.751543   -0.115026
 C    0.995170    1.559490   -0.373818
 C    2.266359    1.026165   -0.485453
 C    2.451184   -0.359032   -0.348880
 C    1.349891   -1.177533   -0.073234
 C    0.075011   -0.632634    0.036164
 S    4.004170   -1.186610   -0.459893
 C    5.227578    0.136766   -0.632561
 O   -3.201354   -1.925964    0.638287
 O   -1.700040    2.520701   -0.170881
 H    3.101341    1.689933   -0.671359
 H    0.835185    2.628140   -0.481178
 H   -0.829178   -2.475398    0.376379
 H    1.491335   -2.248559    0.052130
 H    5.515085    0.548009    0.337531
 H    6.106484   -0.342044   -1.071931
 H    4.900968    0.919430   -1.318361
}
memory 16GB
set_num_threads(8)
psi4_io.set_default_path("/scratch/Psi4-ligand")
set freeze_core True
E, wfn = energy('wb97x-d/6-311++g**',return_wfn=True)
oeprop(wfn,"WIBERG_LOWDIN_INDICES")
clean()
