molecule { 
0 1
 N   -0.623917   -1.562177    0.304061
 C   -1.947135   -1.477281    0.653022
 C   -2.463805   -0.030333    0.810837
 F   -3.788349   -0.001557    0.664036
 F   -2.161774    0.333469    2.105076
 C   -1.778360    1.027949   -0.088026
 C   -0.352688    0.772122   -0.352820
 C    0.470959    1.790326   -0.842601
 C    1.813145    1.558668   -1.092361
 C    2.343782    0.275614   -0.894578
 C    1.531207   -0.749543   -0.411731
 C    0.185551   -0.507536   -0.137604
 S    4.072850    0.004972   -1.226943
 C    4.645328   -0.657594    0.366792
 O   -2.639211   -2.440715    0.881352
 O   -2.394299    1.996324   -0.466826
 H    2.458329    2.359863   -1.436788
 H    0.035021    2.772498   -0.998218
 H   -0.249373   -2.502920    0.280868
 H    1.935153   -1.749041   -0.274644
 H    4.566834    0.096908    1.152547
 H    4.106862   -1.563082    0.653900
 H    5.698912   -0.912675    0.225400
}
memory 16GB
set_num_threads(8)
psi4_io.set_default_path("/scratch/Psi4-ligand")
set freeze_core True
E, wfn = energy('wb97x-d/6-311++g**',return_wfn=True)
oeprop(wfn,"WIBERG_LOWDIN_INDICES")
clean()
