molecule { 
0 1
 N   -0.980165   -1.522224    0.162638
 C   -2.284360   -1.198203    0.427284
 C   -2.607054    0.313645    0.497609
 F   -3.544053    0.567892   -0.448947
 F   -3.155143    0.553228    1.713171
 C   -1.438796    1.316572    0.292003
 C   -0.114199    0.751914    0.019670
 C    0.981133    1.597734   -0.182002
 C    2.244126    1.095732   -0.439553
 C    2.434723   -0.293974   -0.504634
 C    1.350311   -1.152733   -0.293234
 C    0.083532   -0.638546   -0.039921
 S    3.989580   -1.069613   -0.793914
 C    5.156281    0.312351   -0.839164
 O   -3.146023   -2.029740    0.595055
 O   -1.682192    2.500912    0.364277
 H    3.067967    1.782025   -0.593983
 H    0.812636    2.669092   -0.130361
 H   -0.796493   -2.517358    0.116079
 H    1.499202   -2.229316   -0.326670
 H    4.973812    0.971664   -1.691215
 H    5.140003    0.879684    0.094715
 H    6.142571   -0.143032   -0.955002
}
memory 16GB
set_num_threads(8)
psi4_io.set_default_path("/scratch/Psi4-ligand")
set freeze_core True
E, wfn = energy('wb97x-d/6-311++g**',return_wfn=True)
oeprop(wfn,"WIBERG_LOWDIN_INDICES")
clean()
