molecule { 
0 1
 N   -1.066991   -1.480223    0.238286
 C   -2.379573   -1.129873    0.417882
 C   -2.695599    0.401327    0.355664
 F   -3.662516    0.586933   -0.607100
 F   -3.225838    0.763026    1.573788
 C   -1.504034    1.370327    0.039534
 C   -0.158330    0.773805   -0.122604
 C    0.953916    1.599375   -0.397202
 C    2.237539    1.057898   -0.542325
 C    2.443447   -0.343999   -0.425571
 C    1.327535   -1.168731   -0.159048
 C    0.036788   -0.630545   -0.013225
 S    4.005450   -1.183923   -0.545286
 C    5.270769    0.106182   -0.700911
 O   -3.226386   -1.987920    0.620866
 O   -1.692529    2.579338   -0.056809
 H    3.061494    1.740947   -0.743193
 H    0.788659    2.673467   -0.489507
 H   -0.927151   -2.479672    0.297008
 H    1.470424   -2.245506   -0.054743
 H    5.173665    0.817698    0.125091
 H    6.258918   -0.362643   -0.662445
 H    5.148373    0.620656   -1.659115
}
set optking { 
  frozen_dihedral = ("
    11 10 13 14
    9 10 13 14
    21 14 13 10
  ")
}
set {
  geom_maxiter 400
  g_convergence GAU_LOOSE
  dynamic_level 1
}
memory 16GB
set_num_threads(8)
psi4_io.set_default_path("/scratch/Psi4-ligand")
for _ in range(1):
  try:
    set opt_coordinates both
    optimize('wb97x-d/6-31+G*')
    break
  except OptimizationConvergenceError:
    break
  else:
    try:
      set opt_coordinates cartesian
      optimize('wb97x-d/6-31+G*')
      break
    except OptimizationConvergenceError:
      pass
clean()
