molecule { 
0 1
 N   -0.445575   -1.471085    0.613238
 C   -1.751108   -1.446637    1.027233
 C   -2.499035   -0.106585    0.825273
 F   -3.633195   -0.373566    0.135940
 F   -2.846456    0.344394    2.057921
 C   -1.746602    1.041600    0.098177
 C   -0.346623    0.798577   -0.263489
 C    0.406337    1.810051   -0.879334
 C    1.727255    1.610096   -1.216328
 C    2.332598    0.362311   -0.965671
 C    1.600278   -0.646698   -0.344448
 C    0.264269   -0.432663    0.003983
 S    4.028838    0.200353   -1.434071
 C    4.665674   -1.085732   -0.330574
 O   -2.296588   -2.399523    1.533747
 O   -2.346083    2.070861   -0.119907
 H    2.306550    2.408725   -1.668571
 H   -0.079159    2.763063   -1.064718
 H    0.025987   -2.354277    0.765875
 H    2.047714   -1.612712   -0.135039
 H    4.656074   -0.754050    0.710468
 H    4.145405   -2.038903   -0.445018
 H    5.705044   -1.236429   -0.632614
}
memory 16GB
set_num_threads(8)
psi4_io.set_default_path("/scratch/Psi4-ligand")
set freeze_core True
E, wfn = energy('wb97x-d/6-311++g**',return_wfn=True)
oeprop(wfn,"WIBERG_LOWDIN_INDICES")
clean()
