molecule { 
0 1
 N   -1.012426   -1.488635    0.151902
 C   -2.304741   -1.143746    0.448405
 C   -2.599666    0.375435    0.518743
 F   -3.451585    0.658441   -0.501431
 F   -3.240972    0.615076    1.684647
 C   -1.397700    1.354951    0.406105
 C   -0.094847    0.769408    0.080447
 C    1.020577    1.592649   -0.102980
 C    2.264314    1.071187   -0.408115
 C    2.419005   -0.318003   -0.542477
 C    1.314873   -1.154111   -0.341002
 C    0.066276   -0.621252   -0.040936
 S    3.921817   -1.169173   -0.907510
 C    5.238400    0.081553   -0.939362
 O   -3.177911   -1.960523    0.630026
 O   -1.601951    2.537395    0.572874
 H    3.095185    1.751609   -0.547306
 H    0.882327    2.664764    0.000541
 H   -0.847587   -2.485384    0.082421
 H    1.434679   -2.232079   -0.421497
 H    5.765445    0.004727   -1.892238
 H    4.845751    1.094704   -0.855474
 H    5.931014   -0.096170   -0.114637
}
memory 16GB
set_num_threads(8)
psi4_io.set_default_path("/scratch/Psi4-ligand")
set freeze_core True
E, wfn = energy('wb97x-d/6-311++g**',return_wfn=True)
oeprop(wfn,"WIBERG_LOWDIN_INDICES")
clean()
