molecule { 
0 1
N -1.094217774737 -1.487434346328 0.044734188051
C -2.393766284091 -1.084690393087 0.219102553115
C -2.518912794393 0.393910866200 0.614721591325
F -3.779308569811 0.822437947023 0.411828787957
F -2.254065690124 0.443890224611 1.981068929562
C -1.494493955435 1.336972633504 -0.035019415147
C -0.148626848319 0.761464461058 -0.130673473182
C 0.966093973883 1.574023166747 -0.359831544999
C 2.235940653644 1.026208207308 -0.492029414843
C 2.402661068281 -0.369037318023 -0.452141474379
C 1.285490390705 -1.188209036645 -0.233643069962
C 0.012516838812 -0.636952350839 -0.118682856692
S 3.947656782038 -1.195173806920 -0.603452906238
C 5.125925240059 0.170227871907 -0.672827802055
O -3.358681255890 -1.835801997393 0.146441780890
O -1.806232766470 2.479921879276 -0.356540276490
H 3.078670632314 1.686980504747 -0.664031377417
H 0.820134140470 2.651536317192 -0.393333343872
H -0.979252307753 -2.477721674037 -0.159571669629
H 1.409589372453 -2.270637985816 -0.198005378341
H 4.999830475795 0.775197366197 -1.572771830540
H 5.068017769485 0.795712197720 0.219743201791
H 6.113062989299 -0.294882351719 -0.706051331098
}
memory 16GB
set_num_threads(8)
psi4_io.set_default_path("/scratch/Psi4-ligand")
set freeze_core True
set PROPERTIES_ORIGIN ["COM"]
set cubeprop_tasks ['esp']
E, wfn = energy('mp2/6-311G**',properties=['dipole'],return_wfn=True)
cubeprop(wfn)
fchk(wfn, "ligand-dma.fchk")
clean()
