%RWF=/scratch/Gau-ligand/,200GB
%Nosave
%Chk=ligand-dma_temp.chk
%Mem=16GB
%Nproc=8
#P MP2/6-311G** Sp Density=MP2 MaxDisk=200GB 

ligand Gaussian SP Calculation on cpu-spot-dy-c5n2xlarge-1

0 1
 N   -1.094218   -1.487434    0.044734
 C   -2.393766   -1.084690    0.219103
 C   -2.518913    0.393911    0.614722
 F   -3.779309    0.822438    0.411829
 F   -2.254066    0.443890    1.981069
 C   -1.494494    1.336973   -0.035019
 C   -0.148627    0.761464   -0.130673
 C    0.966094    1.574023   -0.359832
 C    2.235941    1.026208   -0.492029
 C    2.402661   -0.369037   -0.452141
 C    1.285490   -1.188209   -0.233643
 C    0.012517   -0.636952   -0.118683
 S    3.947657   -1.195174   -0.603453
 C    5.125925    0.170228   -0.672828
 O   -3.358681   -1.835802    0.146442
 O   -1.806233    2.479922   -0.356540
 H    3.078671    1.686981   -0.664031
 H    0.820134    2.651536   -0.393333
 H   -0.979252   -2.477722   -0.159572
 H    1.409589   -2.270638   -0.198005
 H    4.999830    0.775197   -1.572772
 H    5.068018    0.795712    0.219743
 H    6.113063   -0.294882   -0.706051



