molecule { 
0 1
  N                 -0.7685550    -1.3927420     0.3453050
  C                 -2.0454150    -1.1492830     0.7782580
  C                 -2.5270200     0.3364600     0.6883900
  F                 -3.6014700     0.3707270    -0.1712770
  F                 -2.9637720     0.7084010     1.9405340
  C                 -1.4851110     1.4030980     0.2004280
  C                 -0.1517140     0.9179150    -0.2225990
  C                  0.8248890     1.8303570    -0.6770190
  C                  2.0740430     1.3877300    -1.1289330
  C                  2.4015320     0.0083160    -1.0705750
  C                  1.4441770    -0.9018200    -0.5728380
  C                  0.1767120    -0.4643990    -0.1514740
  S                  3.9507640    -0.6695320    -1.5931640
  C                  5.0717630    -0.3031620    -0.2197520
  O                 -2.7437950    -2.0628100     1.1926300
  O                 -1.7801450     2.5938830     0.1635240
  H                  2.7815910     2.1208260    -1.5142670
  H                  0.5666820     2.8897050    -0.7056400
  H                 -0.5187200    -2.3693380     0.4195400
  H                  1.6892370    -1.9636950    -0.5229130
  H                  5.4085280     0.7353380    -0.2958230
  H                  4.5520560    -0.4472920     0.7330920
  H                  5.9333610    -0.9753140    -0.2724440
--
0 1
  O                  3.2456647     1.5764037     2.1672641
  H                  2.7224787     1.7510237     1.3828631
  H                  2.9423147     2.1583327     2.8642831
}
memory 16GB
set_num_threads(8)
psi4_io.set_default_path("/scratch/Psi4-ligand")
set maxiter 500
set freeze_core True
set PROPERTIES_ORIGIN ["COM"]
e_dim= energy('wb97x-d/aug-cc-pVDZ',bsse_type='cp')

psi4.print_out('CP Energy = %10.6f' % (e_dim))
clean()
