molecule { 
0 1
  N                 -0.8260030    -1.3282960    -0.0779940
  C                 -2.1092650    -1.0544570     0.3197650
  C                 -2.3948000     0.4430980     0.6653630
  F                 -3.6960120     0.7506790     0.3113310
  F                 -2.3114660     0.5636400     2.0338450
  C                 -1.4159460     1.4949620     0.0354070
  C                 -0.0748680     0.9990970    -0.3561590
  C                  0.9166740     1.8984060    -0.8047210
  C                  2.1915510     1.4433670    -1.1643410
  C                  2.4959700     0.0584930    -1.1092430
  C                  1.4871680    -0.8493330    -0.7206960
  C                  0.2051270    -0.3977250    -0.3635390
  S                  4.0705370    -0.6284060    -1.5292630
  C                  5.0499670    -0.3926990    -0.0252100
  O                 -2.9367190    -1.9487370     0.4345980
  O                 -1.7231300     2.6833150    -0.0299150
  H                  2.9370610     2.1736930    -1.4774200
  H                  0.6671740     2.9585660    -0.8554840
  H                 -0.6730600    -2.3132220    -0.2442190
  H                  1.7086540    -1.9167780    -0.6859390
  H                  5.1799690     0.6784470     0.1577010
  H                  4.5314840    -0.8522290     0.8222450
  H                  6.0275000    -0.8654740    -0.1593070
--
0 1
  O                 -2.8270378     0.1803588    -2.8632424
  H                 -3.6592208    -0.0051632    -2.4226414
  H                 -2.9302908     0.9923188    -3.3625644
}
memory 16GB
set_num_threads(8)
psi4_io.set_default_path("/scratch/Psi4-ligand")
set maxiter 500
set freeze_core True
set PROPERTIES_ORIGIN ["COM"]
e_dim= energy('wb97x-d/aug-cc-pVDZ',bsse_type='cp')

psi4.print_out('CP Energy = %10.6f' % (e_dim))
clean()
