molecule { 
0 1
  N                 -0.7735580    -1.3877650     0.3762830
  C                 -2.0506670    -1.1155840     0.7908700
  C                 -2.5043840     0.3774880     0.6774080
  F                 -3.5962270     0.4156400    -0.1601540
  F                 -2.9061990     0.7850010     1.9298970
  C                 -1.4528850     1.4123530     0.1460210
  C                 -0.1227770     0.8977000    -0.2526910
  C                  0.8620890     1.7845470    -0.7401720
  C                  2.1113680     1.3117470    -1.1603950
  C                  2.4259530    -0.0670330    -1.0508120
  C                  1.4556270    -0.9494480    -0.5289330
  C                  0.1886820    -0.4855360    -0.1346250
  S                  3.9638070    -0.7835970    -1.5571510
  C                  5.1473010    -0.1867290    -0.3239010
  O                 -2.7686020    -2.0098140     1.2138050
  O                 -1.7369170     2.6034530     0.0621640
  H                  2.8251380     2.0222360    -1.5760210
  H                  0.6132780     2.8438570    -0.8113500
  H                 -0.5385400    -2.3658440     0.4783350
  H                  1.6887170    -2.0114780    -0.4410070
  H                  5.2957800     0.8895290    -0.4541750
  H                  4.7632760    -0.3852570     0.6822070
  H                  6.0990420    -0.7082150    -0.4615910
--
0 1
  O                  2.8393658     0.3129444     1.9755328
  H                  2.4249378     0.5085044     1.1334898
  H                  2.7699618     1.0895074     2.5312248
}
memory 16GB
set_num_threads(8)
psi4_io.set_default_path("/scratch/Psi4-ligand")
set maxiter 500
set freeze_core True
set PROPERTIES_ORIGIN ["COM"]
e_dim= energy('wb97x-d/aug-cc-pVDZ',bsse_type='cp')

psi4.print_out('CP Energy = %10.6f' % (e_dim))
clean()
