molecule { 
0 1
  N                 -0.8910240    -1.4030780    -0.0050850
  C                 -2.1808660    -1.1218050     0.3703250
  C                 -2.4689910     0.3847960     0.6739010
  F                 -3.7849310     0.6704210     0.3591430
  F                 -2.3291420     0.5634900     2.0316330
  C                 -1.5277770     1.4100670    -0.0475910
  C                 -0.1824620     0.9149700    -0.4256940
  C                  0.7873200     1.8015830    -0.9424290
  C                  2.0693580     1.3486090    -1.2791370
  C                  2.4018320    -0.0232130    -1.1337320
  C                  1.4130960    -0.9230310    -0.6803090
  C                  0.1246030    -0.4738350    -0.3445350
  S                  3.9885200    -0.7054780    -1.5137690
  C                  4.9737920    -0.3323170    -0.0410660
  O                 -3.0031200    -2.0217960     0.5026800
  O                 -1.8575620     2.5856590    -0.1852130
  H                  2.7984520     2.0707080    -1.6457550
  H                  0.5177650     2.8518550    -1.0566600
  H                 -0.7268170    -2.3929600    -0.1238800
  H                  1.6556850    -1.9812730    -0.5767180
  H                  5.1536430     0.7460270     0.0098090
  H                  4.4330830    -0.6596020     0.8528180
  H                  5.9285950    -0.8622630    -0.1078720
--
0 1
  O                 -2.8474150    -0.4746240    -2.2069650
  H                 -3.4144550    -1.2400570    -2.0843050
  H                 -3.3817620     0.2210850    -2.5942830
}
memory 16GB
set_num_threads(8)
psi4_io.set_default_path("/scratch/Psi4-ligand")
set maxiter 500
set freeze_core True
set PROPERTIES_ORIGIN ["COM"]
e_dim= energy('wb97x-d/aug-cc-pVDZ',bsse_type='cp')

psi4.print_out('CP Energy = %10.6f' % (e_dim))
clean()
