molecule { 
0 1
  N                 -0.9782100    -1.3675700    -0.0527530
  C                 -2.2531490    -1.0840870     0.3652430
  C                 -2.5284270     0.4178140     0.7045670
  F                 -3.8206750     0.7286450     0.3229830
  F                 -2.4611000     0.5483650     2.0729670
  C                 -1.5431250     1.4604730     0.0715130
  C                 -0.2162180     0.9523050    -0.3492600
  C                  0.7709500     1.8438230    -0.8220770
  C                  2.0352310     1.3795420    -1.2057160
  C                  2.3341780    -0.0063160    -1.1452420
  C                  1.3275290    -0.9066280    -0.7343480
  C                  0.0540120    -0.4457660    -0.3585310
  S                  3.9004990    -0.7023180    -1.5798170
  C                  4.9455830    -0.3095440    -0.1541970
  O                 -3.0799340    -1.9783730     0.4939980
  O                 -1.8353400     2.6535240     0.0187490
  H                  2.7770320     2.1038670    -1.5404780
  H                  0.5276530     2.9054730    -0.8695930
  H                 -0.8317790    -2.3551090    -0.2096690
  H                  1.5449830    -1.9747330    -0.6936250
  H                  5.1390170     0.7673160    -0.1339530
  H                  4.4353630    -0.6104790     0.7663910
  H                  5.8915050    -0.8515650    -0.2448350
--
0 1
  O                 -2.9597190     0.2246620    -2.2336840
  H                 -3.6066310    -0.4836570    -2.2578610
  H                 -3.4198110     1.0442770    -2.4254650
}
memory 16GB
set_num_threads(8)
psi4_io.set_default_path("/scratch/Psi4-ligand")
set maxiter 500
set freeze_core True
set PROPERTIES_ORIGIN ["COM"]
e_dim= energy('wb97x-d/aug-cc-pVDZ',bsse_type='cp')

psi4.print_out('CP Energy = %10.6f' % (e_dim))
clean()
