molecule { 
0 1
  N                 -0.8329220    -1.4316820     0.0850080
  C                 -2.1158040    -1.1558080     0.4843320
  C                 -2.4289050     0.3591460     0.7054530
  F                 -3.7555890     0.5940930     0.3944060
  F                 -2.2736550     0.6195540     2.0481740
  C                 -1.5199820     1.3601920    -0.0901970
  C                 -0.1640620     0.8757330    -0.4452730
  C                  0.7840340     1.7520530    -1.0162350
  C                  2.0710080     1.3050290    -1.3425650
  C                  2.4281110    -0.0524070    -1.1340790
  C                  1.4580920    -0.9467950    -0.6323440
  C                  0.1650140    -0.5031110    -0.3071010
  S                  4.0263480    -0.7214740    -1.4867930
  C                  4.9860630    -0.3162710    -0.0061480
  O                 -2.9120640    -2.0610510     0.6968400
  O                 -1.8772710     2.5202120    -0.2916330
  H                  2.7862340     2.0217350    -1.7452190
  H                  0.4932850     2.7892110    -1.1843840
  H                 -0.6535010    -2.4233640     0.0118350
  H                  1.7211530    -1.9936930    -0.4758020
  H                  5.0542680     0.7713970     0.0950450
  H                  4.4911080    -0.7384740     0.8741880
  H                  5.9893040    -0.7414380    -0.1033230
--
0 1
  O                 -2.4802802     0.2428501    -2.0667302
  H                 -3.2122782    -0.3727079    -2.1443202
  H                 -2.7581902     1.0734601    -2.4589802
}
memory 16GB
set_num_threads(8)
psi4_io.set_default_path("/scratch/Psi4-ligand")
set maxiter 500
set freeze_core True
set PROPERTIES_ORIGIN ["COM"]
e_dim= energy('wb97x-d/aug-cc-pVDZ',bsse_type='cp')

psi4.print_out('CP Energy = %10.6f' % (e_dim))
clean()
