molecule { 
0 1
  N                 -0.9434020    -1.2946320    -0.0708730
  C                 -2.2086410    -1.0439180     0.3936770
  C                 -2.5064230     0.4442600     0.7696760
  F                 -3.7903720     0.7497380     0.3523190
  F                 -2.4836960     0.5330490     2.1429320
  C                 -1.5166830     1.5216170     0.2013870
  C                 -0.1964200     1.0409120    -0.2702800
  C                  0.7882390     1.9604880    -0.6925130
  C                  2.0449640     1.5210510    -1.1271190
  C                  2.3379690     0.1335820    -1.1724330
  C                  1.3372550    -0.7903110    -0.8016000
  C                  0.0734500    -0.3537710    -0.3679190
  S                  3.8924890    -0.5349890    -1.6856220
  C                  4.9258200    -0.3817870    -0.2070430
  O                 -3.0103620    -1.9559730     0.5455690
  O                 -1.8061590     2.7159920     0.2283820
  H                  2.7864760     2.2648640    -1.4172820
  H                  0.5494890     3.0238560    -0.6588960
  H                 -0.7909570    -2.2752920    -0.2609620
  H                  1.5516850    -1.8593380    -0.8390890
  H                  5.1500330     0.6747250    -0.0313260
  H                  4.3926260    -0.7947290     0.6550380
  H                  5.8560830    -0.9356900    -0.3635650
--
0 1
  O                 -2.7021233     0.4216635    -2.5561282
  H                 -3.6262773     0.4416775    -2.2966372
  H                 -2.5370823     1.1789895    -3.1197762
}
memory 16GB
set_num_threads(8)
psi4_io.set_default_path("/scratch/Psi4-ligand")
set maxiter 500
set freeze_core True
set PROPERTIES_ORIGIN ["COM"]
e_dim= energy('wb97x-d/aug-cc-pVDZ',bsse_type='cp')

psi4.print_out('CP Energy = %10.6f' % (e_dim))
clean()
