molecule { 
0 1
  N                 -0.8428290    -1.4083820     0.0066210
  C                 -2.1332900    -1.1277960     0.3798720
  C                 -2.4292590     0.3838470     0.6455610
  F                 -3.7509640     0.6635760     0.3443400
  F                 -2.2868720     0.5840850     2.0003210
  C                 -1.4867430     1.4036230    -0.0816350
  C                 -0.1354400     0.9075720    -0.4373280
  C                  0.8340730     1.7890790    -0.9624210
  C                  2.1194540     1.3351410    -1.2846030
  C                  2.4560690    -0.0330230    -1.1146520
  C                  1.4670190    -0.9296050    -0.6545140
  C                  0.1734730    -0.4800210    -0.3372240
  S                  4.0482530    -0.7136320    -1.4755480
  C                  5.0229460    -0.3209240    -0.0008380
  O                 -2.9506990    -2.0270760     0.5335290
  O                 -1.8231240     2.5749750    -0.2454090
  H                  2.8479870     2.0541620    -1.6586360
  H                  0.5613700     2.8361600    -1.0959240
  H                 -0.6743700    -2.3995180    -0.0952840
  H                  1.7145800    -1.9843230    -0.5271240
  H                  5.0905510     0.7655620     0.1114950
  H                  4.5393410    -0.7545560     0.8800610
  H                  6.0261560    -0.7422870    -0.1142930
--
0 1
  O                 -2.7895698    -0.1055610    -2.7712494
  H                 -3.4869568    -0.7648560    -2.7990224
  H                 -3.1418938     0.7030140    -3.1491904
}
memory 16GB
set_num_threads(8)
psi4_io.set_default_path("/scratch/Psi4-ligand")
set maxiter 500
set freeze_core True
set PROPERTIES_ORIGIN ["COM"]
e_dim= energy('wb97x-d/aug-cc-pVDZ',bsse_type='cp')

psi4.print_out('CP Energy = %10.6f' % (e_dim))
clean()
