molecule { 
0 1
  N                 -0.9676160    -1.4549240     0.2093220
  C                 -2.2516760    -1.1474040     0.5732680
  C                 -2.6107660     0.3750310     0.5977090
  F                 -3.6825620     0.5612650    -0.2465570
  F                 -3.0110640     0.6832050     1.8787410
  C                 -1.4864710     1.3888710     0.1866270
  C                 -0.1594330     0.8356860    -0.1693950
  C                  0.8949590     1.7010320    -0.5387870
  C                  2.1512030     1.1968010    -0.8958420
  C                  2.3936020    -0.2024380    -0.8646550
  C                  1.3398080    -1.0681870    -0.4980230
  C                  0.0735220    -0.5672840    -0.1515180
  S                  3.9172910    -0.9750520    -1.3417990
  C                  5.2135560    -0.0666170    -0.4589820
  O                 -3.0424390    -2.0342170     0.8612460
  O                 -1.7101850     2.5957460     0.1758760
  H                  2.9264970     1.8980460    -1.2020810
  H                  0.7003320     2.7739000    -0.5549490
  H                 -0.7969600    -2.4513040     0.2094560
  H                  1.5092480    -2.1455980    -0.4926220
  H                  5.4188490     0.8717440    -0.9825500
  H                  4.8876330     0.1426680     0.5640310
  H                  6.1202410    -0.6780710    -0.4326100
--
0 1
  O                  2.8804507     0.0228518     1.6648742
  H                  2.5017217    -0.6438192     2.2385962
  H                  2.2773957     0.7669128     1.6327562
}
memory 16GB
set_num_threads(8)
psi4_io.set_default_path("/scratch/Psi4-ligand")
set maxiter 500
set freeze_core True
set PROPERTIES_ORIGIN ["COM"]
e_dim= energy('wb97x-d/aug-cc-pVDZ',bsse_type='cp')

psi4.print_out('CP Energy = %10.6f' % (e_dim))
clean()
