molecule { 
0 1
  N                 -0.8387180    -1.4162130     0.0458400
  C                 -2.1154550    -1.1700410     0.4831380
  C                 -2.4438040     0.3309240     0.7680960
  F                 -3.7510470     0.5799800     0.4010040
  F                 -2.3528700     0.5214280     2.1279610
  C                 -1.5104670     1.3861230     0.0760970
  C                 -0.1641870     0.9190250    -0.3322220
  C                  0.7846930     1.8303990    -0.8440260
  C                  2.0635470     1.4015020    -1.2209700
  C                  2.4102440     0.0286610    -1.1285480
  C                  1.4388530    -0.8945880    -0.6844750
  C                  0.1548630    -0.4682690    -0.3040470
  S                  3.9942670    -0.6248470    -1.5665020
  C                  5.0031730    -0.3146060    -0.0954460
  O                 -2.8881790    -2.0925920     0.7016620
  O                 -1.8618720     2.5594270    -0.0437570
  H                  2.7790970     2.1421990    -1.5770730
  H                  0.5013350     2.8801220    -0.9241300
  H                 -0.6568400    -2.4034510    -0.0704010
  H                  1.6931890    -1.9532600    -0.6192490
  H                  5.0586660     0.7629650     0.0871740
  H                  4.5495160    -0.8123620     0.7672370
  H                  6.0085440    -0.7123100    -0.2628960
--
0 1
  O                 -2.5192290     0.5113240    -2.3998970
  H                 -2.8819980     1.3680580    -2.1644410
  H                 -1.9320900     0.6304510    -3.1477700
}
memory 16GB
set_num_threads(8)
psi4_io.set_default_path("/scratch/Psi4-ligand")
set maxiter 500
set freeze_core True
set PROPERTIES_ORIGIN ["COM"]
e_dim= energy('wb97x-d/aug-cc-pVDZ',bsse_type='cp')

psi4.print_out('CP Energy = %10.6f' % (e_dim))
clean()
