molecule { 
0 1
  N                 -0.9822580    -1.4639280     0.2190630
  C                 -2.2712640    -1.1572690     0.5671010
  C                 -2.6379910     0.3633640     0.5666410
  F                 -3.6579160     0.5420250    -0.3406010
  F                 -3.1158940     0.6744710     1.8203130
  C                 -1.4959220     1.3801050     0.2166770
  C                 -0.1658920     0.8276470    -0.1304690
  C                  0.8956910     1.6960470    -0.4710440
  C                  2.1574060     1.1914630    -0.8096280
  C                  2.3864770    -0.2103720    -0.8315260
  C                  1.3290480    -1.0771030    -0.4793250
  C                  0.0633070    -0.5762150    -0.1288800
  S                  3.9095680    -0.9821520    -1.3105370
  C                  5.2125960    -0.0491170    -0.4644460
  O                 -3.0629410    -2.0442960     0.8512630
  O                 -1.7123770     2.5882940     0.2314480
  H                  2.9425560     1.8959600    -1.0821180
  H                  0.7067560     2.7699810    -0.4684470
  H                 -0.8101430    -2.4600130     0.2293830
  H                  1.4909330    -2.1558700    -0.5004420
  H                  5.4914020     0.8142880    -1.0760090
  H                  4.8544660     0.2897710     0.5124480
  H                  6.0830610    -0.6978050    -0.3277450
--
0 1
  O                  2.9555476     1.0571452     1.6608162
  H                  2.3232826     0.3880902     1.9247482
  H                  2.4938736     1.8942032     1.6031422
}
memory 16GB
set_num_threads(8)
psi4_io.set_default_path("/scratch/Psi4-ligand")
set maxiter 500
set freeze_core True
set PROPERTIES_ORIGIN ["COM"]
e_dim= energy('wb97x-d/aug-cc-pVDZ',bsse_type='cp')

psi4.print_out('CP Energy = %10.6f' % (e_dim))
clean()
